NAME          ClpDefau  FREE
ROWS
 N  OBJROW
 L  ZMUNI1_PCT
 L  ZMUNI2_PCT
 L  ZMUNI3_PCT
 L  ZMUNI4_PCT
 L  ZMUNI5_PCT
 L  ZMUNI6_PCT
 L  ZMUNI7_PCT
 L  ZMUNI8_PCT
 L  ZMUNI9_PCT
COLUMNS
    QMUNI1 OBJROW 1.          
    QMUNI1 ZMUNI1_PCT 29710.3881  
    QMUNI1 ZMUNI2_PCT 2427.6733   
    QMUNI1 ZMUNI3_PCT 4860.4965   
    QMUNI1 ZMUNI4_PCT 3691.4826   
    QMUNI1 ZMUNI5_PCT 752.2583    
    QMUNI1 ZMUNI6_PCT 939.1784    
    QMUNI1 ZMUNI7_PCT 3066.6351   
    QMUNI1 ZMUNI8_PCT 2734.375    
    QMUNI1 ZMUNI9_PCT 2087.9746   
    QMUNI2 OBJROW 1.          
    QMUNI2 ZMUNI1_PCT 1919.5556   
    QMUNI2 ZMUNI2_PCT 34744.8349  
    QMUNI2 ZMUNI3_PCT 2726.5548   
    QMUNI2 ZMUNI4_PCT 2904.7013   
    QMUNI2 ZMUNI5_PCT 72.67       
    QMUNI2 ZMUNI6_PCT 174.5224    
    QMUNI2 ZMUNI7_PCT 1100.9216   
    QMUNI2 ZMUNI8_PCT 1346.7788   
    QMUNI2 ZMUNI9_PCT 1326.3703   
    QMUNI3 OBJROW 1.          
    QMUNI3 ZMUNI1_PCT 4285.6216   
    QMUNI3 ZMUNI2_PCT 2740.097    
    QMUNI3 ZMUNI3_PCT 30701.828   
    QMUNI3 ZMUNI4_PCT 5260.5629   
    QMUNI3 ZMUNI5_PCT  -37.7655   
    QMUNI3 ZMUNI6_PCT 147.8195    
    QMUNI3 ZMUNI7_PCT 1622.0092   
    QMUNI3 ZMUNI8_PCT 1536.9415   
    QMUNI3 ZMUNI9_PCT 838.852     
    QMUNI4 OBJROW 1.          
    QMUNI4 ZMUNI1_PCT 3922.4624   
    QMUNI4 ZMUNI2_PCT 3660.3927   
    QMUNI4 ZMUNI3_PCT 6094.9325   
    QMUNI4 ZMUNI4_PCT 109710.5026 
    QMUNI4 ZMUNI5_PCT 748.8251    
    QMUNI4 ZMUNI6_PCT 883.1024    
    QMUNI4 ZMUNI7_PCT 2471.9238   
    QMUNI4 ZMUNI8_PCT 2490.6158   
    QMUNI4 ZMUNI9_PCT 2133.5602   
    QMUNI5 OBJROW 1.          
    QMUNI5 ZMUNI1_PCT 550.27      
    QMUNI5 ZMUNI2_PCT 523.1857    
    QMUNI5 ZMUNI3_PCT 543.7851    
    QMUNI5 ZMUNI4_PCT 482.9407    
    QMUNI5 ZMUNI5_PCT 35791.0157  
    QMUNI5 ZMUNI6_PCT 2771.3775   
    QMUNI5 ZMUNI7_PCT 833.5113    
    QMUNI5 ZMUNI8_PCT 853.9199    
    QMUNI5 ZMUNI9_PCT 1038.9328   
    QMUNI6 OBJROW 1.          
    QMUNI6 ZMUNI1_PCT 496.6736    
    QMUNI6 ZMUNI2_PCT 310.3256    
    QMUNI6 ZMUNI3_PCT 418.2815    
    QMUNI6 ZMUNI4_PCT 354.29      
    QMUNI6 ZMUNI5_PCT 2993.7744   
    QMUNI6 ZMUNI6_PCT 32996.7498  
    QMUNI6 ZMUNI7_PCT 637.8174    
    QMUNI6 ZMUNI8_PCT 434.6847    
    QMUNI6 ZMUNI9_PCT 389.6714    
    QMUNI7 OBJROW 1.          
    QMUNI7 ZMUNI1_PCT 1547.6226   
    QMUNI7 ZMUNI2_PCT 974.0829    
    QMUNI7 ZMUNI3_PCT 1386.0702   
    QMUNI7 ZMUNI4_PCT 1098.0606   
    QMUNI7 ZMUNI5_PCT 240.1352    
    QMUNI7 ZMUNI6_PCT 454.7119    
    QMUNI7 ZMUNI7_PCT 31639.862   
    QMUNI7 ZMUNI8_PCT 2588.4628   
    QMUNI7 ZMUNI9_PCT 1004.982    
    QMUNI8 OBJROW 1.          
    QMUNI8 ZMUNI1_PCT 1683.4259   
    QMUNI8 ZMUNI2_PCT 1539.421    
    QMUNI8 ZMUNI3_PCT 1720.2377   
    QMUNI8 ZMUNI4_PCT 1438.0455   
    QMUNI8 ZMUNI5_PCT 579.4525    
    QMUNI8 ZMUNI6_PCT 673.6755    
    QMUNI8 ZMUNI7_PCT 3217.6971   
    QMUNI8 ZMUNI8_PCT 30029.2968  
    QMUNI8 ZMUNI9_PCT 2429.0085   
    QMUNI9 OBJROW 1.          
    QMUNI9 ZMUNI1_PCT 518.7988    
    QMUNI9 ZMUNI2_PCT 849.3423    
    QMUNI9 ZMUNI3_PCT 626.3733    
    QMUNI9 ZMUNI4_PCT 579.3572    
    QMUNI9 ZMUNI5_PCT  -240.5166  
    QMUNI9 ZMUNI6_PCT  -220.6803  
    QMUNI9 ZMUNI7_PCT 429.5349    
    QMUNI9 ZMUNI8_PCT 1045.7992   
    QMUNI9 ZMUNI9_PCT 27927.5895  
RHS
    RHS ZMUNI1_PCT  -0.27598736
    RHS ZMUNI2_PCT -0.097255838
    RHS ZMUNI3_PCT  -0.11692112
    RHS ZMUNI4_PCT 2.1931118229
    RHS ZMUNI5_PCT -0.077924225
    RHS ZMUNI6_PCT  -0.41195348
    RHS ZMUNI7_PCT 0.3817907194
    RHS ZMUNI8_PCT 0.1712390527
    RHS ZMUNI9_PCT 0.3559376663
BOUNDS
 LO BOUND QMUNI1 -0.000796696
 UP BOUND QMUNI1      1.1e+10
 LO BOUND QMUNI2 -0.000550433
 UP BOUND QMUNI2      1.1e+10
 LO BOUND QMUNI3 -0.00061747 
 UP BOUND QMUNI3      1.1e+10
 LO BOUND QMUNI4 -0.000211293
 UP BOUND QMUNI4      1.1e+10
 LO BOUND QMUNI5 -0.000399787
 UP BOUND QMUNI5      1.1e+10
 LO BOUND QMUNI6 -0.000570871
 UP BOUND QMUNI6      1.1e+10
 LO BOUND QMUNI7 -0.000224981
 UP BOUND QMUNI7      1.1e+10
 LO BOUND QMUNI8 -0.00033787 
 UP BOUND QMUNI8      1.1e+10
 LO BOUND QMUNI9 -0.000340904
 UP BOUND QMUNI9      1.1e+10
ENDATA
